14
4 7
4 12
4 2
4 13
4 11
4 6
4 3
7 12
7 11
7 2
7 9
7 5
7 1
6 9
6 5
6 1
6 10
6 3
6 13
9 8
9 10
9 13
9 0
9 12
1 3
1 11
1 13
1 0
1 8
3 10
3 2
3 5
3 8
5 2
5 12
5 0
5 10
2 8
2 10
2 0
8 11
8 0
8 12
12 10
12 11
11 0
11 13
10 13
13 0
